
ACE v2.1 

  instance
    name:PyCSP

  Loading variables...

  Loading constraints...

  domains
    types:1  values:375  sizes:[5:75]
  variables
    count:75  arrays:1  degrees:[59:4,60:32,61:39]
  constraints
    count:1073  specific:23  groups:2  arities:[4:1050,10:14,15:5,30:4]
    distribution:[Cardinality:5,ConstraintIntension:1050,LexicographicLE:18]
    intStructures:(1,shared:1049)
    wck:1.04  cpu:1.875  mem:26M264

  Building solver... 

  solver
    guaranteedAC:true
    wck:1.10  cpu:1.906  mem:29M410

  preprocessing
    revisions:(4200,useless=4200)  values:375  unsat:false
    wck:0.031  cpu:1.937  mem:29M410

    run0  dpts:20..32  effs:132  fails:10  wrgs:19  wck:0.00  ngds:3
    run1  dpts:1..5  effs:252  fails:21  wrgs:31  wck:0.06  ngds:11
    run2  dpts:0..6  effs:369  fails:33  wrgs:45  wck:0.09  ngds:16
    run3  dpts:0..8  effs:462  fails:46  wrgs:60  wck:0.11  ngds:21
    run4  dpts:0..10  effs:534  fails:60  wrgs:74  wck:0.12  ngds:32
    run5  dpts:0..23  effs:736  fails:76  wrgs:102  wck:0.14  ngds:36
    run6  dpts:0..35  effs:1081  fails:93  wrgs:128  wck:0.16  ngds:42
    run7  dpts:1..31  effs:1298  fails:112  wrgs:150  wck:0.19  ngds:57
    run8  dpts:1..33  effs:1594  fails:133  wrgs:177  wck:0.22  ngds:71
    run9  dpts:1..74  effs:1800  fails:144  wrgs:190  wck:0.24  ngds:71  sols:1

  global
    effs:1800  revisions:(240656,useless=239587)  ngds:71
    stop:REACHED_GOAL  wrgs:190  sols:1  sol1Cpu:2.14
    wck:1.35  cpu:2.14  mem:29M936


  Solution 1 in JSON format:
   {
    x: [
     [0, 0, 0, 1, 1, 1, 2, 2, 2, 3, 3, 3, 4, 4, 4],
     [0, 1, 2, 1, 3, 4, 0, 3, 4, 2, 3, 4, 0, 1, 2],
     [1, 3, 2, 4, 3, 0, 3, 1, 4, 1, 0, 2, 0, 2, 4],
     [2, 0, 1, 2, 3, 0, 4, 0, 1, 3, 2, 4, 1, 3, 4],
     [3, 0, 1, 1, 4, 3, 2, 1, 0, 0, 2, 4, 4, 2, 3]
    ]
   }

s SATISFIABLE

v <instantiation id='sol1' type='solution'> <list> x[][] </list> <values> 0x3 1x3 2x3 3x3 4x3 0 1 2 1 3 4 0 3 4 2 3 4 0 1 2 1 3 2 4 3 0 3 1 4 1 0 2 0 2 4 2 0 1 2 3 0 4 0 1 3 2 4 1 3 4 3 0 1 1 4 3 2 1 0 0 2 4 4 2 3 </values> </instantiation>

d WRONG DECISIONS 190
d FOUND SOLUTIONS 1
d INCOMPLETE EXPLORATION

c real time : 2.171
